words_easy_train/words_122_SAT.qaiger
aag 63 16 0 1 47
20
4
24
12
22
26
30
32
6
8
14
18
2
28
16
10
127
34 5 3
36 34 7
38 36 9
40 38 11
42 40 13
44 42 33
46 45 17
48 43 32
50 17 14
52 51 49
54 53 14
56 55 47
58 23 4
60 22 5
62 61 59
64 20 3
66 64 63
68 21 2
70 68 62
72 71 67
74 35 6
76 75 37
78 76 24
80 77 25
82 81 79
84 82 73
86 37 8
88 87 39
90 88 26
92 89 27
94 93 91
96 94 84
98 39 10
100 99 41
102 100 28
104 101 29
106 105 103
108 106 96
110 108 57
112 53 46
114 41 12
116 115 43
118 117 31
120 116 30
122 121 119
124 122 113
126 124 110
i0 1 x1[1]
i1 2 y1[1]
i2 1 x1[3]
i3 2 y1[5]
i4 1 x1[2]
i5 1 x1[4]
i6 1 x1[6]
i7 1 x1[7]
i8 2 y1[2]
i9 2 y1[3]
i10 2 y1[6]
i11 1 x1[0]
i12 2 y1[0]
i13 1 x1[5]
i14 2 y1[7]
i15 2 y1[4]
o0 bool[0]
c
simplified
  !=
    subtract
      2 y1
      1
    >> 1
      1 x1
