words_easy_train/words_122_SAT.qaiger.qdimacs
p cnf 63 142
a 9 10 11 12 13 14 15 16 0
e 1 2 3 4 5 6 7 8 17 18 19 20 21 22 23 24 25 26 27 28 29 30 31 32 33 34 35 36 37 38 39 40 41 42 43 44 45 46 47 48 49 50 51 52 53 54 55 56 57 58 59 60 61 62 63 0
2 1 17 0
-2 -17 0
-1 -17 0
-17 3 18 0
17 -18 0
-3 -18 0
-18 4 19 0
18 -19 0
-4 -19 0
-19 5 20 0
19 -20 0
-5 -20 0
-20 6 21 0
20 -21 0
-6 -21 0
-21 16 22 0
21 -22 0
-16 -22 0
22 8 23 0
-22 -23 0
-8 -23 0
21 -16 24 0
-21 -24 0
16 -24 0
8 -7 25 0
-8 -25 0
7 -25 0
25 24 26 0
-25 -26 0
-24 -26 0
26 -7 27 0
-26 -27 0
7 -27 0
27 23 28 0
-27 -28 0
-23 -28 0
11 -2 29 0
-11 -29 0
2 -29 0
-11 2 30 0
11 -30 0
-2 -30 0
30 29 31 0
-30 -31 0
-29 -31 0
-10 1 32 0
10 -32 0
-1 -32 0
-32 31 33 0
32 -33 0
-31 -33 0
10 -1 34 0
-10 -34 0
1 -34 0
-34 -31 35 0
34 -35 0
31 -35 0
35 33 36 0
-35 -36 0
-33 -36 0
17 -3 37 0
-17 -37 0
3 -37 0
37 18 38 0
-37 -38 0
-18 -38 0
-38 -12 39 0
38 -39 0
12 -39 0
38 12 40 0
-38 -40 0
-12 -40 0
40 39 41 0
-40 -41 0
-39 -41 0
-41 36 42 0
41 -42 0
-36 -42 0
18 -4 43 0
-18 -43 0
4 -43 0
43 19 44 0
-43 -44 0
-19 -44 0
-44 -13 45 0
44 -45 0
13 -45 0
44 13 46 0
-44 -46 0
-13 -46 0
46 45 47 0
-46 -47 0
-45 -47 0
-47 -42 48 0
47 -48 0
42 -48 0
19 -5 49 0
-19 -49 0
5 -49 0
49 20 50 0
-49 -50 0
-20 -50 0
-50 -14 51 0
50 -51 0
14 -51 0
50 14 52 0
-50 -52 0
-14 -52 0
52 51 53 0
-52 -53 0
-51 -53 0
-53 -48 54 0
53 -54 0
48 -54 0
-54 28 55 0
54 -55 0
-28 -55 0
26 -23 56 0
-26 -56 0
23 -56 0
20 -6 57 0
-20 -57 0
6 -57 0
57 21 58 0
-57 -58 0
-21 -58 0
58 15 59 0
-58 -59 0
-15 -59 0
-58 -15 60 0
58 -60 0
15 -60 0
60 59 61 0
-60 -61 0
-59 -61 0
-61 56 62 0
61 -62 0
-56 -62 0
-62 -55 63 0
62 -63 0
55 -63 0
-63 0
